(set-logic QF_S)
(declare-fun var0 () String)
(assert (str.in.re var0 (re.++ (re.* (re.+ (re.union (re.+ (re.* (re.+ (re.+ (re.* (re.+ (re.* (re.* (re.union (re.* (re.+ (str.to.re "000"))) (re.* (re.* (str.to.re "1")))))))))))) (re.+ (re.union (re.union (re.+ (re.union (re.union (re.* (re.union (re.union (re.+ (re.+ (str.to.re "2"))) (re.+ (re.union (str.to.re "33") (str.to.re "444")))) (re.union (re.union (re.* (str.to.re "55")) (re.* (str.to.re "66"))) (re.union (re.* (str.to.re "77")) (re.* (str.to.re "8")))))) (re.* (re.+ (re.* (re.+ (re.union (str.to.re "99") (str.to.re "aaa"))))))) (re.union (re.+ (re.* (re.* (re.* (re.* (str.to.re "bbb")))))) (re.+ (re.union (re.+ (re.+ (re.+ (str.to.re "c")))) (re.+ (re.union (re.* (str.to.re "dd")) (re.* (str.to.re "e"))))))))) (re.+ (re.* (re.* (re.* (re.+ (re.union (re.* (re.+ (str.to.re "f"))) (re.* (re.+ (str.to.re "gg")))))))))) (re.union (re.union (re.union (re.* (re.+ (re.union (re.union (re.* (re.+ (str.to.re "h"))) (re.* (re.+ (str.to.re "iii")))) (re.union (re.+ (re.+ (str.to.re "jj"))) (re.+ (re.* (str.to.re "k"))))))) (re.* (re.* (re.+ (re.* (re.* (re.+ (str.to.re "lll")))))))) (re.union (re.union (re.+ (re.+ (re.union (re.union (re.union (str.to.re "mm") (str.to.re "nn")) (re.union (str.to.re "o") (str.to.re "ppp"))) (re.union (re.+ (str.to.re "qq")) (re.+ (str.to.re "rrr")))))) (re.+ (re.* (re.union (re.union (re.+ (str.to.re "ss")) (re.+ (str.to.re "ttt"))) (re.union (re.union (str.to.re "uu") (str.to.re "v")) (re.union (str.to.re "w") (str.to.re "xx"))))))) (re.union (re.union (re.+ (re.+ (re.union (re.union (str.to.re "yyy") (str.to.re "zzz")) (re.union (str.to.re "AA") (str.to.re "BB"))))) (re.+ (re.union (re.* (re.union (str.to.re "CCC") (str.to.re "D"))) (re.* (re.+ (str.to.re "E")))))) (re.union (re.union (re.+ (re.union (re.* (str.to.re "F")) (re.* (str.to.re "GGG")))) (re.+ (re.+ (re.* (str.to.re "HHH"))))) (re.union (re.* (re.union (re.* (str.to.re "II")) (re.* (str.to.re "JJJ")))) (re.* (re.* (re.union (str.to.re "KKK") (str.to.re "L"))))))))) (re.union (re.+ (re.+ (re.union (re.+ (re.* (re.+ (re.+ (str.to.re "MMM"))))) (re.+ (re.* (re.+ (re.union (str.to.re "NNN") (str.to.re "OOO")))))))) (re.+ (re.union (re.* (re.union (re.* (re.+ (re.* (str.to.re "PPP")))) (re.* (re.* (re.union (str.to.re "QQ") (str.to.re "R")))))) (re.* (re.+ (re.* (re.* (re.* (str.to.re "SS"))))))))))))))) (re.+ (re.union (re.* (re.union (re.+ (re.+ (re.* (re.+ (re.union (re.* (re.union (re.union (re.+ (re.* (str.to.re "TTT"))) (re.+ (re.+ (str.to.re "UUU")))) (re.union (re.* (re.+ (str.to.re "VVV"))) (re.* (re.union (str.to.re "W") (str.to.re "X")))))) (re.* (re.+ (re.+ (re.* (re.* (str.to.re "YY"))))))))))) (re.+ (re.union (re.union (re.* (re.* (re.union (re.* (re.union (re.union (re.union (str.to.re "Z") (str.to.re "!!")) (re.union (str.to.re """""""") (str.to.re "#"))) (re.union (re.* (str.to.re "$$$")) (re.* (str.to.re "%%%"))))) (re.* (re.+ (re.* (re.union (str.to.re "&&&") (str.to.re "'")))))))) (re.* (re.* (re.union (re.+ (re.* (re.* (re.union (str.to.re "(((") (str.to.re ")))"))))) (re.+ (re.* (re.+ (re.union (str.to.re "**") (str.to.re "++"))))))))) (re.union (re.+ (re.+ (re.* (re.+ (re.union (re.+ (re.+ (str.to.re ",,,"))) (re.+ (re.union (str.to.re "--") (str.to.re "...")))))))) (re.+ (re.union (re.* (re.+ (re.union (re.* (re.union (str.to.re "/") (str.to.re ":"))) (re.* (re.union (str.to.re ";;") (str.to.re "<<")))))) (re.* (re.union (re.* (re.union (re.union (str.to.re "===") (str.to.re ">>")) (re.union (str.to.re "?") (str.to.re "@")))) (re.* (re.+ (re.union (str.to.re "[") (str.to.re "\\"))))))))))))) (re.* (re.* (re.+ (re.+ (re.* (re.+ (re.+ (re.+ (re.* (re.* (re.* (re.union (str.to.re "]") (str.to.re "^^^"))))))))))))))))))
(assert (<= 15 (str.len var0)))
(check-sat)